26185
6,86,98,216,288,323,426,473,599,603,607,748,813,830,995,1038,1143,1260,1292,1312,1322,1361,1400,1457,1656,1728,1778,1887,1957,2124,2162,2251,2278,2504,2530,2581,2595,2720,2744,2810,2902,2951,2966,3032,3185,3215,3216,3246,3250,3364,3374,3449,3500,3562,3584,3599,3622,3624,3678,3897,3914,3946,4021,4026,4226,4340,4347,4358,4487,4512,4518,4539,4544,4557,4575,4648,4687,4874,4877,4906
